(set-logic QF_NIA)
(set-info :source |
    Sequential equivalence checking.
    Calypto Design Systems, Inc. <www.calypto.com>
  |)
(set-info :smt-lib-version 2.0)
(set-info :category "industrial")
(set-info :status sat)
(declare-fun P_2 () Int)
(declare-fun P_3 () Int)
(declare-fun P_4 () Int)
(declare-fun P_5 () Int)
(declare-fun P_6 () Int)
(declare-fun P_7 () Int)
(declare-fun P_8 () Int)
(declare-fun P_9 () Int)
(declare-fun P_10 () Int)
(declare-fun P_11 () Int)
(declare-fun P_12 () Int)
(declare-fun P_13 () Int)
(declare-fun P_14 () Int)
(declare-fun P_15 () Int)
(declare-fun P_16 () Int)
(declare-fun P_17 () Int)
(declare-fun P_18 () Int)
(declare-fun P_19 () Int)
(declare-fun P_20 () Int)
(declare-fun P_21 () Int)
(assert (<= 0 P_2))
(assert (<= P_2 3))
(assert (<= 0 P_3))
(assert (<= P_3 255))
(assert (<= 0 P_4))
(assert (<= P_4 255))
(assert (<= 0 P_5))
(assert (<= P_5 255))
(assert (<= 0 P_6))
(assert (<= P_6 255))
(assert (<= 0 P_7))
(assert (<= P_7 255))
(assert (<= 0 P_8))
(assert (<= P_8 255))
(assert (<= 0 P_9))
(assert (<= P_9 255))
(assert (<= 0 P_10))
(assert (<= P_10 255))
(assert (<= 0 P_11))
(assert (<= P_11 255))
(assert (<= 0 P_12))
(assert (<= P_12 3))
(assert (<= 0 P_13))
(assert (<= P_13 255))
(assert (<= 0 P_14))
(assert (<= P_14 255))
(assert (<= 0 P_15))
(assert (<= P_15 255))
(assert (<= 0 P_16))
(assert (<= P_16 255))
(assert (<= 0 P_17))
(assert (<= P_17 255))
(assert (<= 0 P_18))
(assert (<= P_18 255))
(assert (<= 0 P_19))
(assert (<= P_19 255))
(assert (<= 0 P_20))
(assert (<= P_20 3))
(assert (<= 0 P_21))
(assert (<= P_21 255))
(declare-fun dz () Int)
(declare-fun rz () Int)
(assert (let ((?v_2 (= P_2 2)) (?v_1 (= P_2 1)) (?v_0 (= P_2 0))) (let ((?v_3 (+ (ite ?v_0 P_3 (ite ?v_1 P_3 (ite ?v_2 P_3 P_4))) (ite ?v_0 P_5 (ite ?v_1 P_5 (ite ?v_2 P_5 P_6))))) (?v_4 (- P_9 P_10)) (?v_5 (+ P_4 P_6)) (?v_11 (= P_12 2)) (?v_9 (= P_12 1)) (?v_8 (= P_12 0))) (let ((?v_13 (ite ?v_8 ?v_5 (ite ?v_9 ?v_5 (ite ?v_11 (- P_8 P_11) P_13)))) (?v_6 (+ P_14 P_15))) (let ((?v_7 (+ (ite ?v_0 ?v_6 (ite ?v_1 ?v_6 (ite ?v_2 ?v_6 P_16))) (ite ?v_0 P_17 (ite ?v_1 P_17 (ite ?v_2 P_17 P_18))))) (?v_10 (+ P_16 P_18))) (let ((?v_14 (ite ?v_8 ?v_10 (ite ?v_9 ?v_10 (ite ?v_11 ?v_5 P_19))))) (let ((?v_12 (* (ite ?v_0 ?v_3 (ite ?v_1 ?v_3 (ite ?v_2 (- (ite ?v_0 P_7 (ite ?v_1 P_7 (ite ?v_2 P_7 P_8))) (ite ?v_0 ?v_4 (ite ?v_1 ?v_4 (ite ?v_2 ?v_4 P_11)))) ?v_13))) (ite ?v_0 ?v_7 (ite ?v_1 ?v_7 (ite ?v_2 ?v_3 ?v_14))))) (?v_15 (* ?v_13 ?v_14)) (?v_16 (* P_13 P_19))) (= (+ (* 256 dz) rz) (- (ite ?v_0 ?v_12 (ite ?v_1 ?v_12 (ite ?v_2 ?v_12 (ite ?v_8 ?v_15 (ite ?v_9 ?v_15 (ite ?v_11 ?v_15 (ite (= P_20 0) ?v_16 (ite (= P_20 1) ?v_16 (ite (= P_20 2) ?v_16 P_21))))))))) ?v_12)))))))))
(assert (> rz 0))
(assert (< rz 256))
(check-sat)
(exit)
